122	0

0	3	2	3	4
7	3	9	11	14
10	8	12	16	17	18	19	20	21	22
3	2	5	6
2	3	7	8	13
1	5	7	8	10	13	15
1	3	9	11	14
1	3	9	11	14
2	8	12	16	17	18	19	20	21	22
6	8	12	16	17	18	19	20	21	22
1	9	12	16	17	18	19	20	21	22	31
4	8	23	24	25	26	27	33	34	42
10	6	23	25	27	33	34	42
7	8	23	24	25	26	27	33	34	42
7	3	18	19	21
6	4	23	25	27	42
3	11	23	24	25	26	27	28	29	30	33	34	42
8	2	32	35
5	4	23	25	27	42
4	8	23	24	25	26	27	33	34	42
2	11	23	24	25	26	27	28	29	30	33	34	42
5	6	23	25	27	33	34	42
2	2	32	35
8	7	36	37	39	41	43	46	48
5	9	36	37	38	39	40	41	43	46	48
6	10	35	36	37	38	39	40	41	43	46	48
6	7	36	37	39	41	43	46	48
7	10	35	36	37	38	39	40	41	43	46	48
8	9	36	37	38	39	40	41	43	46	48
9	7	36	37	39	41	43	46	48
9	2	32	35
2	9	36	37	38	39	40	41	43	46	48
7	7	36	37	39	41	43	46	48
9	4	36	39	41	48
6	2	44	55
4	4	45	50	59	61
6	4	45	50	59	61
8	3	45	50	59
1	3	44	51	55
5	2	44	55
10	6	53	60	62	64	67	68
9	3	44	51	55
8	6	47	49	52	54	57	70
2	4	45	50	59	61
1	6	47	49	52	54	57	70
9	4	52	56	58	70
4	6	53	60	62	64	67	68
7	4	52	56	58	70
3	8	53	56	58	60	62	64	67	68
5	6	53	60	62	64	67	68
8	8	53	56	58	60	62	64	67	68
3	6	53	60	62	64	67	68
2	1	63
6	1	63
9	4	60	62	63	67
5	6	69	71	72	73	74	75
8	6	69	71	72	73	74	75
4	9	65	66	69	71	72	73	74	75	80
6	4	60	62	63	67
6	3	72	73	74
10	6	69	71	72	73	74	75
2	9	65	66	69	71	72	73	74	75	80
1	9	65	66	69	71	72	73	74	75	80
3	9	65	66	69	71	72	73	74	75	80
5	2	76	78
9	8	77	79	82	83	85	86	88	91
5	3	72	73	74
4	6	69	71	72	73	74	75
6	8	77	79	82	83	85	86	88	91
10	3	72	73	74
8	8	77	79	82	83	85	86	88	91
5	8	77	79	82	83	85	86	88	91
9	4	84	87	89	90
1	2	76	78
9	4	81	84	85	88
4	8	77	79	82	83	85	86	88	91
9	6	92	93	94	96	97	98
5	4	81	84	85	88
2	5	81	84	87	89	90
10	4	81	84	85	88
9	6	93	95	96	97	99	105
6	3	87	89	90
4	4	84	87	89	90
4	6	92	93	94	96	97	98
4	3	87	89	90
6	3	87	89	90
5	6	93	95	96	97	99	105
6	7	92	93	94	96	97	98	100
1	7	92	93	94	96	97	98	100
7	6	93	95	97	99	101	105
10	5	92	93	94	96	97
4	7	95	99	101	102	103	104	105
6	3	102	103	104
4	7	95	99	101	102	103	104	105
7	5	106	107	108	109	111
4	4	101	102	103	104
7	6	104	106	107	108	109	111
7	3	102	103	104
7	5	106	107	108	109	111
8	4	101	102	103	104
7	3	106	108	109
2	5	106	107	108	109	111
5	3	108	109	110
10	2	113	117
10	3	108	109	110
3	1	110
5	2	112	115
7	3	114	116	117
9	3	114	116	118
1	2	112	115
9	2	113	117
4	2	113	117
3	3	114	116	118
9	1	119
9	1	118
10	1	119
6	1	118
4	1	119
2	1	120
3	1	121
9	1	122
0	0
